
Cone linearizations applied:  141

Root node processing (before b&c):
  Real time             =    0.02 sec. (10.67 ticks)
Sequential b&c:
  Real time             =    0.01 sec. (10.37 ticks)
                          ------------
Total (root+branch&cut) =    0.03 sec. (21.05 ticks)
Tried aggregator 2 times.
MIQCP Presolve eliminated 133 rows and 1 columns.
Aggregator did 64 substitutions.
Reduced MIQCP has 94 rows, 192 columns, and 436 nonzeros.
Reduced MIQCP has 132 binaries, 0 generals, 0 SOSs, and 0 indicators.
Reduced MIQCP has 12 quadratic constraints.
Presolve time = 0.00 sec. (0.48 ticks)
Probing time = 0.00 sec. (0.07 ticks)
Clique table members: 34.
MIP emphasis: balance optimality and feasibility.
MIP search method: dynamic search.
Parallel mode: none, using 1 thread.
Root relaxation solution time = 0.00 sec. (0.36 ticks)

        Nodes                                         Cuts/
   Node  Left     Objective  IInf  Best Integer    Best Bound    ItCnt     Gap

      0     0    83770.7382    11                      0.0000       69         
      0     0   103929.4703    17                     Cone: 9      103         
      0     0   154706.5268    18                    Cone: 20      144         
      0     0   167912.0444    18                    Cone: 32      161         
      0     0   174119.4206    18                    Cone: 44      173         
      0     0   175552.1293    18                    Cone: 56      186         
      0     0   176263.0608    18                    Cone: 68      197         
      0     0   176629.6303    18                    Cone: 92      235         
      0     0   176629.6406    18                   Cone: 104      246         
      0     0   176629.6457    18                   Cone: 114      255         
      0     0   176629.6482    18                   Cone: 123      262         
      0     0   176629.6495    18                   Cone: 131      269         
      0     0   176629.6501    18                   Cone: 138      275         
      0     0   176629.6503    18                   Cone: 142      278         
      0     0   176629.6503    18                   Cone: 145      279         
      0     0   176629.6503    18                 176629.6503      279         
*     0+    0                       264386.1442   176629.6503            33.19%
      0     0   225775.3187    23   264386.1442      Cuts: 14      340   14.60%
      0     0   248562.9050    19   264386.1442      Cuts: 22      375    5.98%
      0     0   256048.2797    16   264386.1442   LiftProj: 2      383    3.15%
      0     2   264017.8913     4   264386.1442   264017.9992      410    0.14%
Elapsed time = 0.12 sec. (84.50 ticks, tree = 0.01 MB, solutions = 1)
*    40+   35                       264346.4319   264019.5054             0.12%
*    90+   41                       264133.6891   264021.4998             0.04%
*   650+  414                       264131.9090   264045.4779             0.03%
*  1670+  790                       264127.6029   264066.3432             0.02%
   2087   895   264073.9602     5   264127.6029   264074.0741     5826    0.02%
#SOLVERNAME# CPLEX_MISOCP
#SOLVER# CPLEX.CplexSolver(Any[(:CPX_PARAM_THREADS, 1), (:CPX_PARAM_TILIM, 3600.0), (:CPX_PARAM_SCRIND, 1), (:CPX_PARAM_EPINT, 1.0e-9), (:CPX_PARAM_EPRHS, 1.0e-8), (:CPX_PARAM_EPGAP, 1.0e-5)])
#INSTANCE# sssd-strong-30-4.cbf.gz
#TIMELIMIT# 3600.0
#STATUS# Optimal
#OBJVAL# 264127.6029057235
#OBJBOUND# 264124.9628585773
#NODECOUNT# 4893
#TIMESOLVER# 0.7884171009063721
#TIMEALL# 1.3877499103546143
#SOLUTION# [0.0,0.0,1.0,0.0,1.0,0.0,0.0,0.0,1.0,0.0,0.0,0.0,1.0,0.0,0.0,0.0,1.0,0.0,0.0,0.0,1.0,0.0,0.0,0.0,0.0,0.0,1.0,0.0,0.0,0.0,0.0,1.0,0.0,0.0,0.0,1.0,0.0,1.0,0.0,0.0,0.0,0.0,0.0,1.0,1.0,0.0,0.0,0.0,0.0,0.0,1.0,0.0,0.0,1.0,0.0,0.0,1.0,0.0,0.0,0.0,0.0,0.0,0.0,1.0,1.0,0.0,0.0,0.0,0.0,0.0,0.0,1.0,0.0,0.0,0.0,1.0,0.0,0.0,1.0,0.0,0.0,1.0,0.0,0.0,0.0,0.0,0.0,1.0,0.0,1.0,0.0,0.0,1.0,0.0,0.0,0.0,0.0,1.0,0.0,0.0,0.0,0.0,1.0,0.0,0.0,0.0,1.0,0.0,0.0,0.0,0.0,1.0,0.0,0.0,1.0,0.0,0.0,1.0,0.0,0.0,0.0,0.0,1.0,0.0,0.0,1.0,0.0,0.0,1.0,0.0,0.0,1.0,0.6898591011503798,0.6141761516684004,0.7006672144085684,0.7090019824048128,0.0,0.0,0.40823469478718044,0.0,0.0,0.3804889328064893,0.0,0.0,0.4119954713379126,0.0,0.0,0.4148631853879073,0.0,0.3449295505751899,0.3449295505751899,0.1408122031815997,0.3070880758342002,0.3070880758342002,0.11684360943095556,0.3503336072042842,0.3503336072042842,0.1443358715353279,0.3545009912024064,0.3545009912024064,0.14706939850845277,0.6898591011503798,0.6898591011503798,1.6898591011503798,0.6141761516684004,0.6141761516684004,1.6141761516684006,0.7006672144085684,0.7006672144085684,1.7006672144085684,0.7090019824048128,0.7090019824048128,1.709001982404813,0.6898591011503798,0.6898591011503798,0.6898591011503798,0.6141761516684004,0.6141761516684004,0.6141761516684004,0.7006672144085684,0.7006672144085684,0.7006672144085684,0.7090019824048128,0.7090019824048128,0.7090019824048128]

Cone linearizations applied:  37

Root node processing (before b&c):
  Real time             =    0.12 sec. (84.50 ticks)
Sequential b&c:
  Real time             =    0.66 sec. (455.49 ticks)
                          ------------
Total (root+branch&cut) =    0.79 sec. (539.99 ticks)
